Route #1: 1 27 20 8 26 21 14 61 17 11 50
Route #2: 1 12 34 45 16 57
Route #3: 1 55 30 31 3 6 46 28
Route #4: 1 35 9 60 25 37
Route #5: 1 54 22 56 33 59 41 15 51 36
Route #6: 1 13 29 23 18 52 7
Route #7: 1 62 4 42 43 10 32 47 2
Route #8: 1 49 39 44 19 5 48
Route #9: 1 40 24 53 63 58 38
cost 1811
